\ Generated by MPModelProtoExporter
\   Name             : 
\   Format           : Free
\   Constraints      : 1
\   Variables        : 24
\     Binary         : 0
\     Integer        : 0
\     Continuous     : 24
Minimize
 Obj: +4.68 x[0] +4.68 x[1] +4.68 x[2] +4.68 x[3] +4.68 x[4] +4.68 x[5] +4.68 x[6] +4.68 x[7] +4.68 x[8] +5.616 x[9] +13.104 x[10] +13.104 x[11] +10.92 x[12] +10.92 x[13] +10.92 x[14] +10.92 x[15] +10.92 x[16] +10.92 x[17] +10.92 x[18] +10.92 x[19] +10.92 x[20] +10.92 x[21] +10.92 x[22] +4.68 x[23] 
Subject to
 auto_c_000000000: +4.5 x[0] +4.5 x[1] +4.5 x[2] +4.5 x[3] +4.5 x[4] +4.5 x[5] +4.5 x[6] +4.5 x[7] +4.5 x[8] +5.4 x[9] +5.4 x[10] +5.4 x[11] +4.5 x[12] +4.5 x[13] +4.5 x[14] +4.5 x[15] +4.5 x[16] +4.5 x[17] +4.5 x[18] +4.5 x[19] +4.5 x[20] +4.5 x[21] +4.5 x[22] +4.5 x[23]  = 166.05
Bounds
 1 <= x[0] <= 2.6
 1 <= x[1] <= 2.6
 1 <= x[2] <= 2.6
 1 <= x[3] <= 2.6
 1 <= x[4] <= 2.6
 1 <= x[5] <= 2.6
 1 <= x[6] <= 2.6
 1 <= x[7] <= 2.6
 1 <= x[8] <= 2.6
 1 <= x[9] <= 2.6
 1 <= x[10] <= 2.6
 1 <= x[11] <= 2.6
 1 <= x[12] <= 2.6
 1 <= x[13] <= 2.6
 1 <= x[14] <= 2.6
 1 <= x[15] <= 2.6
 1 <= x[16] <= 2.6
 1 <= x[17] <= 2.6
 1 <= x[18] <= 2.6
 1 <= x[19] <= 2.6
 1 <= x[20] <= 2.6
 1 <= x[21] <= 2.6
 1 <= x[22] <= 2.6
 1 <= x[23] <= 2.6
End
erals
 x[0]
 x[1]
 x[2]
 x[3]
 x[4]
 x[5]
 x[6]
 x[7]
 x[8]
 x[9]
 x[10]
 x[11]
 x[12]
 x[13]
 x[14]
 x[15]
 x[16]
 x[17]
 x[18]
 x[19]
 x[20]
 x[21]
 x[22]
 x[23]
End
